Assets/LKHProbs~/skull.41.tsp
NAME : GeneratedProblem
COMMENT : SVGCrosshatch
TYPE : TSP
DIMENSION : 46
EDGE_WEIGHT_TYPE : EUC_2D
NODE_COORD_SECTION
1 8100 6000
2 8100 6100
3 8200 6000
4 8200 6100
5 8300 6000
6 8300 6100
7 8300 6200
8 8300 6300
9 8300 6400
10 8300 6500
11 8300 6600
12 8300 6700
13 8400 6000
14 8400 6100
15 8400 6200
16 8400 6300
17 8400 6400
18 8400 6500
19 8400 6600
20 8400 6700
21 8700 6000
22 8700 6100
23 8700 6200
24 8700 6300
25 8800 6000
26 8800 6100
27 8800 6200
28 8800 6300
29 8900 6000
30 8900 6100
31 8900 6200
32 8900 6300
33 8900 6400
34 8900 6500
35 8900 6600
36 8900 6700
37 8900 6800
38 8900 6900
39 9000 6000
40 9000 6100
41 9000 6200
42 9000 6300
43 9000 6400
44 9000 6500
45 9000 6600
46 9000 6700
EOF
