Assets/LKHProbs~/skull.41.out.txt
NAME : GeneratedProblem.5124.tour
COMMENT : Length = 5124
COMMENT : Found by LKH [Keld Helsgaun] Sun Nov 25 13:17:42 2018
TYPE : TOUR
DIMENSION : 46
TOUR_SECTION
1
2
4
6
7
8
9
10
11
12
20
19
18
17
16
15
23
24
28
27
31
32
33
34
35
36
37
38
46
45
44
43
42
41
40
39
29
30
26
25
21
22
14
13
5
3
-1
EOF
